188
146
58
72
207
101
12
36
47
191
44
167
107
50
74
15
343
28
115
114
58
141
252
136
67
40
177
35
97
263
204
175
72
142
47
86
76
154
174
227
191
138
161
59
176
72
75
250
160
187
118
130
66
320
278
128
259
207
85
228
318
15
59
39
268
12
145
302
142
55
34
0
64
99
188
325
145
179
181
57
323
26
124
109
31
13
189
117
113
140
31
142
337
29
157
117
37
149
37
245
